ilp_joint_2/output/chemical reaction_ilp.lp
Maximize
 
Subject To
 constraint2_600: <= 1
 constraint2_601: <= 1
 constraint2_602: <= 1
 constraint2_603: <= 1
Bounds
End
