ilp_joint_2/output/chemical reaction_ilp.mps
NAME chemical reaction_srl_ilp
* Max problem is converted into Min one
ROWS
 N  OBJ
 L  constraint2_600
 L  constraint2_601
 L  constraint2_602
 L  constraint2_603
COLUMNS
RHS
    RHS1      constraint2_600  1
    RHS1      constraint2_601  1
    RHS1      constraint2_602  1
    RHS1      constraint2_603  1
BOUNDS
ENDATA
