ilp_joint_2/output/chemical reaction_ilp.sol
# Solution for model chemical reaction_srl_ilp
# Objective value = 0
